<number of tasks>
250

<cycle time>
1000

<order strength>
0.895


<task times>
1 108
2 485
3 164
4 95
5 88
6 124
7 212
8 373
9 95
10 321
11 320
12 130
13 137
14 178
15 225
16 124
17 83
18 402
19 241
20 215
21 182
22 104
23 220
24 141
25 190
26 187
27 360
28 300
29 122
30 437
31 124
32 172
33 158
34 417
35 101
36 303
37 262
38 96
39 164
40 288
41 319
42 312
43 81
44 60
45 448
46 58
47 90
48 24
49 134
50 43
51 208
52 152
53 22
54 31
55 287
56 390
57 81
58 147
59 511
60 349
61 141
62 125
63 44
64 79
65 357
66 437
67 51
68 212
69 507
70 89
71 125
72 227
73 95
74 553
75 210
76 96
77 270
78 268
79 362
80 109
81 81
82 252
83 76
84 508
85 175
86 108
87 529
88 303
89 140
90 86
91 239
92 306
93 110
94 237
95 46
96 321
97 79
98 392
99 145
100 234
101 528
102 581
103 136
104 153
105 309
106 472
107 565
108 66
109 41
110 250
111 71
112 102
113 84
114 244
115 32
116 370
117 244
118 235
119 136
120 125
121 220
122 133
123 234
124 88
125 478
126 90
127 103
128 143
129 403
130 252
131 189
132 120
133 88
134 125
135 231
136 168
137 138
138 240
139 305
140 131
141 90
142 600
143 133
144 137
145 81
146 36
147 112
148 417
149 549
150 131
151 461
152 111
153 238
154 351
155 56
156 31
157 251
158 186
159 577
160 97
161 81
162 278
163 600
164 277
165 51
166 275
167 105
168 122
169 105
170 522
171 317
172 130
173 533
174 102
175 549
176 454
177 175
178 452
179 316
180 246
181 357
182 138
183 359
184 240
185 351
186 87
187 243
188 346
189 47
190 123
191 126
192 226
193 366
194 333
195 276
196 122
197 172
198 96
199 439
200 82
201 296
202 541
203 487
204 517
205 29
206 70
207 432
208 113
209 623
210 83
211 143
212 105
213 205
214 504
215 80
216 279
217 199
218 278
219 77
220 227
221 34
222 368
223 45
224 511
225 434
226 244
227 244
228 32
229 38
230 147
231 268
232 145
233 505
234 41
235 171
236 186
237 175
238 99
239 100
240 241
241 162
242 132
243 267
244 90
245 532
246 465
247 200
248 198
249 425
250 247

<precedence relations>
1,11
1,14
2,6
2,7
3,6
3,7
4,6
4,7
5,6
5,7
6,8
6,9
6,10
6,11
7,8
7,9
7,10
7,11
8,52
9,12
9,13
9,14
9,15
10,12
10,13
10,14
10,15
11,12
11,13
11,15
12,16
12,17
12,18
12,19
13,16
13,17
13,18
13,19
14,16
14,17
14,18
14,19
15,16
15,17
15,18
15,19
16,20
16,21
16,22
17,20
17,21
17,22
18,20
18,21
18,22
19,20
19,21
19,22
20,23
20,24
20,25
20,26
20,27
20,28
21,23
21,24
21,25
21,26
21,27
21,28
22,23
22,24
22,25
22,26
22,27
22,28
23,29
23,30
23,31
23,32
23,39
24,29
24,30
24,31
24,32
24,33
25,29
25,30
25,39
26,29
26,30
26,32
27,44
27,59
28,30
28,80
29,34
29,35
29,36
29,37
29,38
30,85
31,34
31,36
31,38
32,34
32,35
33,34
33,35
33,39
34,40
34,42
34,43
35,40
35,41
35,42
35,43
36,40
37,40
37,41
37,42
37,43
38,40
38,43
39,40
39,41
39,42
39,43
40,44
40,45
40,46
40,47
40,48
41,44
41,45
41,46
41,47
41,48
42,44
42,45
42,46
42,57
43,44
43,45
43,46
44,49
44,50
44,52
44,58
45,54
46,49
46,59
46,60
47,49
47,50
47,51
47,52
48,49
48,50
48,51
49,53
49,54
50,53
50,54
50,55
50,56
50,60
51,53
51,54
51,55
51,56
51,57
51,58
51,59
51,60
52,55
52,56
52,60
53,63
53,71
54,63
54,67
54,71
55,61
55,62
55,64
55,65
56,61
57,63
58,61
58,62
58,63
58,64
58,67
59,61
59,62
59,67
60,61
60,62
60,63
60,64
60,66
60,67
61,96
61,97
62,68
62,69
62,70
62,71
63,68
63,69
63,70
64,68
64,69
64,70
64,71
65,68
66,68
67,68
68,72
68,73
68,74
68,76
68,77
69,72
69,77
70,74
70,75
70,76
70,77
71,72
71,73
71,74
71,75
72,79
73,78
74,184
74,231
74,234
75,78
75,79
75,80
76,78
76,79
76,80
77,78
77,79
77,80
78,81
78,82
78,83
78,84
79,81
79,82
79,83
79,84
80,81
80,82
80,83
81,88
82,98
82,99
83,85
83,86
83,87
84,86
84,87
84,88
84,89
85,90
85,91
86,91
87,94
87,95
87,96
87,97
88,90
88,91
89,90
89,91
90,92
90,93
90,95
90,97
91,92
91,93
91,94
91,96
92,136
93,98
94,98
94,99
95,98
95,99
96,98
96,99
97,98
98,100
98,101
98,102
98,103
99,100
99,101
99,102
100,105
101,106
101,108
101,118
101,119
101,120
101,121
102,104
102,105
102,106
103,104
103,105
103,106
103,107
104,108
104,109
104,110
104,111
104,112
105,108
105,109
105,110
105,111
105,112
106,133
107,108
107,109
108,142
108,147
109,113
109,114
109,115
109,116
109,117
110,113
110,117
111,113
111,114
111,115
112,115
113,118
113,119
114,118
114,119
114,120
114,121
115,120
116,118
116,119
117,118
117,119
117,120
117,121
118,122
119,122
119,123
119,124
120,122
120,124
121,122
121,123
121,124
122,125
122,126
122,127
122,128
123,125
124,127
124,128
125,129
125,131
126,129
126,142
127,129
127,130
128,129
128,130
129,132
130,132
130,133
130,137
131,132
131,133
131,134
132,146
133,135
133,136
134,135
134,136
134,137
135,141
135,155
135,182
135,185
136,138
136,139
136,140
136,142
137,138
137,139
137,140
137,141
137,143
138,147
139,144
139,145
140,216
140,222
141,162
141,210
142,144
142,146
142,148
142,150
143,149
144,149
145,149
145,150
146,149
146,151
147,149
147,151
148,149
149,152
149,153
149,154
149,155
150,152
150,153
151,152
151,155
152,156
152,157
152,158
152,159
152,160
153,156
153,157
153,160
154,156
154,185
155,156
155,157
156,161
156,163
156,188
157,161
158,161
158,162
158,165
158,166
159,193
160,164
160,165
161,172
161,199
162,167
162,201
163,167
163,169
164,167
164,168
165,170
165,172
166,168
166,171
167,186
167,197
167,207
168,197
168,210
169,175
169,196
170,173
170,174
170,175
170,176
171,173
171,174
172,186
172,196
173,177
173,179
174,182
174,183
175,178
175,195
175,229
176,180
176,181
177,182
177,184
177,185
178,203
179,183
179,199
180,184
180,186
180,203
181,183
181,206
182,187
182,222
182,241
183,200
183,208
183,209
184,187
184,193
184,195
184,222
185,188
185,189
186,187
186,189
186,191
186,198
187,230
187,240
188,190
188,191
189,211
189,225
190,194
190,196
190,197
191,192
191,193
191,195
192,211
193,223
193,224
194,199
194,231
195,244
196,198
196,200
198,202
198,204
199,218
199,233
199,234
200,201
200,203
200,205
201,207
202,208
203,210
203,211
203,212
204,206
204,209
204,239
205,213
205,228
207,217
207,239
208,216
208,236
209,222
209,226
209,245
209,249
210,228
211,215
211,216
211,218
212,214
212,215
214,244
215,221
215,241
217,219
217,220
219,222
219,225
220,223
220,226
220,234
221,224
222,229
222,235
222,250
223,232
223,237
224,226
224,227
224,230
224,232
225,228
226,235
226,236
227,235
228,231
228,232
228,234
228,237
229,236
230,233
232,240
233,239
233,242
234,241
234,244
236,238
238,243
239,244
239,247
240,245
240,246
244,249
244,250
247,248

<end>
